Traveling Salesman Problem/TSP_generados/Aleatorio1621103337_10.tsp
NAME: Aleatorio1621103337_10.tsp
COMMENT: Randomly generated scenario
TYPE: TSP
DIMENSION: 10
EDGE_WEIGHT_TYPE: ATT
NODE_COORD_SECTION
1 42.08 29.43
2 28.12 15.59
3 35.18 17.85
4 12.38 38.68
5 37.41 39.91
6 23.89 30.49
7 37.27 41.58
8 30.68 10.44
9 4.02 12.37
10 4.42 2.51
