Traveling Salesman Problem/TSP_generados/Aleatorio1621103337_10.opt.tour
NAME: Aleatorio1621103337_10.opt.tour
COMMENT: Optimal solution for Aleatorio1621103337_10 (136.2037643472179)
TYPE: TOUR
DIMENSION: 10
TOUR_SECTION
1 3 2 8 10 9 4 6 7 5
-1
EOF
